Ga N                                    
   1.00000000000000     
     3.2160928274425444   -0.0000000000033534    0.0000000000000000
    -1.6080464142270827    2.7852180893859040   -0.0000000000000000
     0.0000000000000000   -0.0000000000000000    5.2399399270433475
   Ga   N 
     2     2
Direct
  0.3333333388539970  0.6666666774999968  0.4991348951915667
  0.6666659965589972  0.3333333387500019  0.9991341227145722
  0.6666659965589972  0.3333333387500019  0.3758642334284305
  0.3333333388539970  0.6666666774999968  0.8758634609514291
