generated by phonopy
   1.0
     3.1903276449499591    0.0000000000000000    0.0000000000000000
    -1.5951638224749796    2.7629047869224452    0.0000000000000000
     0.0000000000000000    0.0000000000000000   14.5968955048125242
Mo S
   2    4
Direct
  0.0000000000000000  0.0000000000000000  0.2500000000000000
  0.0000000000000000  0.0000000000000000  0.7500000000000000
  0.6666666666666666  0.3333333333333333  0.1427850563268673
  0.6666666666666667  0.3333333333333334  0.3572149436731327
  0.3333333333333333  0.6666666666666666  0.6427850563268673
  0.3333333333333334  0.6666666666666667  0.8572149436731327
